NAME: random103
TYPE: TSP
DIMENSION: 103
EDGE_WEIGHT_TYPE: EXPLICIT
EDGE_WEIGHT_FORMAT: FULL_MATRIX
EDGE_WEIGHT_SECTION
0 130 130 130 13 130 130 29 21 130 130 130 130 130 17 12 15 26 130 19 130 130 130 15 130 130 21 19 130 130 14 130 130 15 130 130 130 130 130 130 130 130 130 32 130 130 14 130 130 130 130 10 130 130 4 130 130 19 130 130 130 130 130 130 130 28 130 130 130 130 34 130 130 130 130 130 130 36 130 130 130 130 130 130 32 130 130 130 130 130 5 29 21 17 130 130 130 130 23 130 130 130 18
130 0 130 130 130 130 130 130 130 130 130 130 130 130 130 130 130 130 10 130 130 130 130 130 130 130 130 130 130 130 130 130 14 130 130 130 15 130 130 130 130 130 5 130 130 22 130 130 130 130 12 130 130 130 130 12 130 130 130 130 130 9 130 130 130 130 130 130 13 26 130 130 130 130 130 25 130 130 130 130 130 130 130 18 130 130 130 35 3 130 130 130 130 130 30 28 130 130 130 130 130 21 130
130 130 0 130 130 130 17 130 27 130 130 25 20 130 130 130 130 24 130 130 130 17 130 130 16 25 130 15 130 130 130 130 130 130 130 130 130 130 18 17 130 29 130 130 13 130 130 130 130 130 130 130 130 130 130 130 130 16 130 130 130 130 130 30 12 130 130 130 130 32 130 34 12 130 130 130 130 130 130 130 130 130 130 130 6 24 130 130 130 12 28 23 130 24 130 130 130 37 130 28 28 130 130
130 130 130 0 130 130 130 130 130 34 20 130 24 130 130 130 130 130 130 130 130 130 23 130 130 130 130 130 130 130 130 130 130 130 130 16 130 130 25 130 33 36 130 130 130 130 130 58 15 130 130 130 30 130 130 130 10 130 29 130 18 130 15 29 130 130 130 7 130 130 130 25 130 130 12 130 35 130 130 130 130 18 130 130 130 130 130 130 130 130 130 130 130 130 130 130 130 130 130 130 130 130 130
13 130 130 130 0 130 130 130 16 130 130 130 130 130 130 16 28 22 130 30 130 130 130 130 130 130 9 23 130 130 130 130 130 3 32 130 130 130 130 130 130 130 130 24 130 130 12 130 130 130 130 21 130 130 17 130 130 29 130 130 130 130 130 130 130 16 130 130 130 130 28 130 130 130 130 130 130 25 130 130 21 130 130 130 130 130 130 130 130 130 17 130 130 130 130 130 130 130 130 130 130 130 6
130 130 130 130 130 0 130 130 130 11 130 130 130 130 130 130 130 130 24 130 130 130 22 130 130 130 130 130 130 130 130 130 12 130 130 47 14 130 130 130 130 130 21 130 130 130 130 130 130 130 130 130 130 130 130 17 130 130 18 130 130 130 130 24 130 130 130 130 32 23 130 23 130 130 130 3 10 130 130 130 130 130 130 130 130 130 130 130 130 130 130 130 130 130 130 130 130 130 130 130 130 130 130
130 130 17 130 130 130 0 130 130 33 8 130 6 130 130 130 130 130 130 130 130 4 130 130 9 130 130 130 130 130 130 130 130 130 130 130 130 130 1 6 130 130 130 130 13 130 130 130 130 130 130 130 22 130 130 130 130 130 130 130 130 130 130 20 11 130 130 130 130 130 130 21 130 130 130 130 130 130 130 130 130 9 130 130 19 130 130 130 130 12 130 130 130 130 130 130 130 130 130 29 130 130 130
29 130 130 130 130 130 130 0 130 130 130 130 130 130 14 29 18 130 130 12 13 130 130 14 130 130 130 130 21 130 16 4 130 130 130 130 130 130 130 130 130 130 130 52 130 130 36 130 130 130 130 21 130 36 130 130 130 130 130 130 130 130 130 130 130 130 18 130 130 130 130 130 130 130 130 130 130 130 13 130 130 130 130 130 130 130 17 130 130 130 130 130 10 130 130 130 130 130 12 130 130 130 45
21 130 27 130 16 130 130 130 0 130 130 24 130 25 130 30 31 7 130 130 130 130 130 130 130 11 21 14 130 130 33 130 130 15 45 130 130 30 130 130 130 130 130 39 130 28 27 130 130 130 130 30 130 130 24 130 130 25 130 22 130 130 130 130 130 21 130 130 130 130 13 130 24 28 130 130 130 20 130 24 24 130 130 130 30 24 130 22 130 130 21 10 130 30 130 130 130 130 130 130 44 130 21
130 130 130 34 130 11 33 130 130 0 37 31 130 130 130 130 130 130 26 130 130 130 12 130 130 130 130 130 130 130 130 130 19 130 130 40 23 130 32 130 130 130 27 130 130 35 130 130 130 130 130 130 130 130 130 26 130 130 14 130 130 130 49 14 31 130 130 38 130 18 130 12 34 130 130 14 1 130 130 130 130 35 130 130 130 130 130 130 29 32 130 130 130 130 130 23 130 130 130 23 130 130 130
130 130 130 20 130 130 8 130 130 37 0 130 4 130 130 130 130 130 130 130 130 7 28 130 10 130 130 130 130 130 130 130 130 130 130 130 130 130 8 7 21 21 130 130 15 130 130 43 130 130 130 130 16 130 130 130 26 130 130 130 130 130 24 25 19 130 130 130 130 130 130 25 130 130 130 130 130 130 130 130 130 3 130 130 130 130 130 130 130 130 130 130 130 130 130 130 130 130 130 130 130 130 130
130 130 25 130 130 130 130 130 24 31 130 0 130 130 130 130 130 17 22 130 130 130 130 130 130 12 130 25 130 130 130 130 32 130 130 130 130 130 130 130 130 130 130 130 130 13 130 130 130 130 130 130 130 130 130 130 130 130 130 9 130 28 130 23 130 130 130 130 130 13 15 130 13 130 130 130 130 33 130 130 130 130 130 22 130 1 130 25 130 19 130 13 130 130 130 8 130 130 130 8 130 28 130
130 130 20 24 130 130 6 130 130 130 4 130 0 130 130 130 130 130 130 130 130 4 30 130 6 130 130 130 130 130 130 130 130 130 130 130 130 130 6 3 20 19 130 130 11 130 130 130 130 130 130 130 16 130 130 130 130 130 130 130 130 130 28 25 16 130 130 130 130 130 130 26 130 130 130 130 130 130 130 130 130 6 130 130 130 130 130 130 130 130 130 130 130 130 130 130 130 35 130 130 36 130 130
130 130 130 130 130 130 130 130 25 130 130 130 130 0 130 130 130 26 130 130 130 130 130 130 130 26 130 130 130 130 130 130 130 130 37 130 130 13 130 130 130 130 130 130 130 27 130 130 130 130 43 130 130 130 130 130 130 130 130 26 130 130 130 130 130 17 130 130 130 130 20 130 130 3 130 130 130 5 130 4 14 130 130 25 130 130 130 9 130 130 130 130 130 130 19 130 130 130 130 130 130 22 130
17 130 130 130 130 130 130 14 130 130 130 130 130 130 0 21 5 130 130 10 18 130 130 5 130 130 130 130 130 130 3 13 130 130 130 130 130 130 130 130 130 130 130 44 130 130 130 130 130 130 130 10 130 130 12 130 130 18 130 130 130 130 130 130 130 130 130 130 130 130 130 130 130 130 130 130 130 130 24 130 130 130 15 130 130 130 16 130 130 130 14 130 4 10 130 130 15 130 7 130 21 130 130
12 130 130 130 16 130 130 29 30 130 130 130 130 130 21 0 22 130 130 17 130 130 130 16 130 130 20 130 130 130 19 31 130 19 36 130 130 130 130 130 130 130 130 24 130 130 7 130 130 130 130 10 130 130 13 130 130 130 130 130 130 130 130 130 130 130 130 130 130 130 130 130 130 130 130 130 130 130 42 130 130 130 130 130 130 130 130 130 130 130 16 130 24 130 130 130 130 130 130 130 130 130 17
15 130 130 130 28 130 130 18 31 130 130 130 130 130 5 22 0 130 130 14 20 130 130 9 130 130 130 22 130 130 5 17 130 130 130 130 130 130 130 130 130 130 130 130 130 130 130 130 130 130 130 12 130 130 11 130 130 13 130 130 130 130 130 130 130 130 18 130 130 130 130 130 130 130 130 130 130 130 130 130 130 130 14 130 26 130 15 130 130 130 12 130 9 5 130 130 14 130 8 130 19 130 130
26 130 24 130 22 130 130 130 7 130 130 17 130 26 130 130 130 0 130 130 130 130 130 130 130 5 130 14 130 130 130 130 130 22 130 130 130 130 130 130 130 130 130 130 130 22 130 130 130 130 130 130 130 130 29 130 130 26 130 16 130 130 130 130 130 26 130 130 130 130 9 130 19 130 130 130 130 22 130 130 28 130 130 130 28 17 130 20 130 26 25 4 130 32 130 130 130 130 130 25 130 130 130
130 10 130 130 130 24 130 130 130 26 130 22 130 130 130 130 130 130 0 130 130 130 130 130 130 31 130 130 130 130 130 130 13 130 130 130 17 130 130 130 130 130 9 130 130 15 130 130 130 130 21 130 130 130 130 16 130 130 39 21 130 12 130 29 130 130 130 130 23 17 30 32 130 130 130 24 26 130 130 130 130 130 130 15 130 22 130 31 9 37 130 130 130 130 31 18 130 130 130 18 130 21 130
19 130 130 130 30 130 130 12 130 130 130 130 130 130 10 17 14 130 130 0 23 130 130 6 130 130 36 130 130 130 10 14 130 130 130 130 130 130 130 130 130 130 130 39 130 130 24 130 130 130 130 9 130 130 16 130 130 130 130 130 130 130 130 130 130 130 130 130 130 130 130 130 130 130 130 130 130 130 25 130 130 130 130 130 130 130 130 130 130 130 19 130 10 130 130 130 130 130 15 130 130 130 33
130 130 130 130 130 130 130 13 130 130 130 130 130 130 18 130 20 130 130 23 0 130 130 22 130 130 130 130 8 10 130 9 130 130 130 130 130 130 130 130 130 130 130 62 130 130 130 130 130 8 130 130 130 23 130 130 130 130 130 130 130 130 130 130 130 130 7 130 130 130 130 130 130 130 130 130 130 130 10 130 130 130 11 130 130 130 7 130 130 130 130 130 14 21 130 130 9 25 12 130 15 130 130
130 130 17 130 130 130 4 130 130 130 7 130 4 130 130 130 130 130 130 130 130 0 130 130 6 130 130 32 130 130 130 130 130 130 130 130 130 130 5 2 130 21 130 130 9 130 130 130 130 130 130 130 18 130 130 130 130 130 130 130 130 130 130 24 13 130 130 130 130 130 130 25 21 130 130 130 130 130 130 130 130 9 130 130 17 130 130 130 130 14 130 130 130 130 130 130 130 130 130 130 34 130 130
130 130 130 23 130 22 130 130 130 12 28 130 30 130 130 130 130 130 130 130 130 130 0 130 130 130 130 130 130 130 130 130 31 130 130 30 130 130 25 130 47 130 130 130 130 130 130 130 32 130 130 130 43 130 130 130 32 130 12 130 35 130 37 12 28 130 130 27 130 24 130 7 130 130 30 25 12 130 130 130 130 25 130 130 130 130 130 130 130 130 130 130 130 130 130 130 130 130 130 28 130 130 130
15 130 130 130 130 130 130 14 130 130 130 130 130 130 5 16 9 130 130 6 22 130 130 0 130 130 130 130 130 130 4 15 130 130 130 130 130 130 130 130 130 130 130 40 130 130 23 130 130 130 130 7 130 130 11 130 130 130 130 130 130 130 130 130 130 130 130 130 130 130 130 130 130 130 130 130 130 130 26 130 130 130 130 130 130 130 130 130 130 130 14 130 8 14 130 130 130 130 12 130 130 130 130
130 130 16 130 130 130 9 130 130 130 10 130 6 130 130 130 130 130 130 130 130 6 130 130 0 130 130 130 130 36 130 130 130 130 130 130 130 130 10 4 19 16 130 130 5 130 130 36 130 130 130 130 15 130 130 130 130 28 130 130 130 130 32 130 16 130 130 130 130 130 130 130 130 130 130 130 130 130 130 130 130 12 130 130 15 130 130 130 130 130 130 130 130 130 130 130 130 30 130 130 29 130 130
130 130 25 130 130 130 130 130 11 130 130 12 130 26 130 130 130 5 31 130 130 130 130 130 130 0 130 17 130 130 130 130 130 130 130 130 130 130 130 130 130 130 130 130 130 17 130 130 130 130 130 130 130 130 130 130 130 130 130 11 130 130 130 130 130 29 130 130 130 26 7 130 17 130 130 130 130 23 130 130 130 130 130 25 130 12 130 19 130 24 30 2 130 130 130 20 130 130 130 20 130 130 130
21 130 130 130 9 130 130 130 21 130 130 130 130 130 130 20 130 130 130 36 130 130 130 130 130 130 0 130 130 130 130 130 130 7 24 130 130 21 130 130 130 130 130 18 130 130 14 130 130 130 130 130 130 130 130 130 130 130 130 130 130 130 130 130 130 9 130 130 130 130 30 130 130 130 130 130 130 22 130 22 14 130 130 130 130 130 130 130 130 130 130 130 130 130 45 130 130 130 130 130 130 130 3
19 130 15 130 23 130 130 130 14 130 130 25 130 130 130 130 22 14 130 130 130 32 130 130 130 17 130 0 130 130 130 130 130 24 130 130 130 130 130 130 130 42 130 130 27 130 32 130 130 130 130 27 130 130 20 130 130 12 130 28 130 130 130 40 24 34 130 130 130 130 23 130 18 130 130 130 130 34 130 130 130 130 30 130 16 25 130 34 130 23 16 15 130 19 130 130 130 130 30 31 31 130 130
130 130 130 130 130 130 130 21 130 130 130 130 130 130 130 130 130 130 130 130 8 130 130 130 130 130 130 130 0 4 130 17 130 130 130 130 130 130 130 130 37 33 130 68 130 130 130 17 130 4 130 130 130 16 130 130 130 130 130 130 130 130 130 130 130 130 6 130 130 130 130 130 130 130 130 130 130 130 14 130 130 130 11 130 130 130 9 130 130 130 130 130 21 24 130 130 10 17 17 130 12 130 130
130 130 130 130 130 130 130 130 130 130 130 130 130 130 130 130 130 130 130 130 10 130 130 130 36 130 130 130 4 0 130 19 130 130 130 130 130 130 130 130 34 29 130 130 32 130 130 15 130 3 130 130 35 14 130 130 130 130 130 130 130 130 59 130 130 130 6 130 130 130 130 130 130 130 130 130 130 130 18 130 130 130 10 130 30 130 8 130 130 130 130 130 130 22 130 130 9 15 130 130 8 130 130
14 130 130 130 130 130 130 16 33 130 130 130 130 130 3 19 5 130 130 10 130 130 130 4 130 130 130 130 130 130 0 16 130 130 130 130 130 130 130 130 130 130 130 42 130 130 24 130 130 130 130 8 130 130 10 130 130 17 130 130 130 130 130 130 130 130 130 130 130 130 130 130 130 130 130 130 130 130 130 130 130 130 17 130 130 130 130 130 130 130 12 130 7 10 130 130 130 130 10 130 130 130 130
130 130 130 130 130 130 130 4 130 130 130 130 130 130 13 31 17 130 130 14 9 130 130 15 130 130 130 130 17 19 16 0 130 130 130 130 130 130 130 130 130 130 130 54 130 130 130 130 130 17 130 22 130 32 130 130 130 130 130 130 130 130 130 130 130 130 14 130 130 130 130 130 130 130 130 130 130 130 12 130 130 130 16 130 130 130 13 130 130 130 130 130 9 20 130 130 14 130 10 130 130 130 130
130 14 130 130 130 12 130 130 130 19 130 32 130 130 130 130 130 130 13 130 130 130 31 130 130 130 130 130 130 130 130 130 0 130 130 58 6 130 48 130 130 130 9 130 130 28 130 130 130 130 130 130 130 130 130 7 130 130 30 130 130 22 130 28 130 130 130 130 21 21 130 30 130 130 130 12 19 130 130 130 130 130 130 29 130 130 130 130 11 42 130 130 130 130 130 25 130 130 130 25 130 130 130
15 130 130 130 3 130 130 130 15 130 130 130 130 130 130 19 130 22 130 130 130 130 130 130 130 130 7 24 130 130 130 130 130 0 31 130 130 25 130 130 130 130 130 24 130 130 14 130 130 130 130 130 130 130 20 130 130 130 130 130 130 130 130 130 130 13 130 130 130 130 26 130 130 130 130 130 130 22 130 23 18 130 130 130 130 130 130 29 130 130 19 130 130 130 130 130 130 130 130 130 130 130 6
130 130 130 130 32 130 130 130 45 130 130 130 130 37 130 36 130 130 130 130 130 130 130 130 130 130 24 130 130 130 130 130 130 31 0 130 130 25 130 130 130 130 130 13 130 130 30 130 130 130 130 130 130 130 130 130 130 130 130 130 130 130 130 130 130 24 130 130 130 130 50 130 130 38 130 130 130 35 130 34 25 130 130 130 130 130 130 46 130 130 130 130 130 130 54 130 130 130 130 130 130 59 26
130 130 130 16 130 47 130 130 130 40 130 130 130 130 130 130 130 130 130 130 130 130 30 130 130 130 130 130 130 130 130 130 58 130 130 0 130 130 41 130 130 130 130 130 130 130 130 130 4 130 130 130 45 130 130 130 15 130 29 130 6 130 24 40 130 130 130 10 130 130 130 35 130 130 6 130 40 130 130 130 130 34 130 130 130 130 130 130 130 130 130 130 130 130 130 130 130 130 130 130 130 130 130
130 15 130 130 130 14 130 130 130 23 130 130 130 130 130 130 130 130 17 130 130 130 130 130 130 130 130 130 130 130 130 130 6 130 130 130 0 130 130 130 130 130 10 130 130 130 130 130 130 130 24 130 130 130 130 4 130 130 32 130 130 130 130 130 130 130 130 130 18 27 130 130 130 130 130 12 22 130 130 130 130 130 130 130 130 130 130 130 12 130 130 130 130 130 130 130 130 130 130 130 130 130 130
130 130 130 130 130 130 130 130 30 130 130 130 130 13 130 130 130 130 130 130 130 130 130 130 130 130 21 130 130 130 130 130 130 25 25 130 130 0 130 130 130 130 130 30 130 130 130 130 130 130 54 130 130 130 130 130 130 130 130 130 130 130 130 130 130 13 130 130 130 130 130 130 130 12 130 130 130 13 130 10 7 130 130 38 130 130 130 22 130 130 130 130 130 130 29 130 130 130 130 130 130 34 130
130 130 18 25 130 130 1 130 130 32 8 130 6 130 130 130 130 130 130 130 130 5 25 130 10 130 130 130 130 130 130 130 48 130 130 41 130 130 0 6 26 25 130 130 13 130 130 130 130 130 130 130 22 130 130 130 130 130 37 130 130 130 31 19 11 130 130 130 130 29 130 21 20 130 130 130 130 130 130 130 130 8 130 130 130 130 130 130 130 12 130 130 130 130 130 130 130 130 130 29 130 130 130
130 130 17 130 130 130 6 130 130 130 7 130 3 130 130 130 130 130 130 130 130 2 130 130 4 130 130 130 130 130 130 130 130 130 130 130 130 130 6 0 21 19 130 130 8 130 130 130 130 130 130 130 17 130 130 130 130 130 130 130 130 130 130 130 14 130 130 130 130 130 130 130 130 130 130 130 130 130 130 130 130 10 130 130 17 130 130 130 130 15 130 130 130 130 130 130 130 34 130 130 33 130 130
130 130 130 33 130 130 130 130 130 130 21 130 20 130 130 130 130 130 130 130 130 130 47 130 19 130 130 130 37 34 130 130 130 130 130 130 130 130 26 21 0 6 130 130 21 130 130 26 130 36 130 130 5 28 130 130 33 130 130 130 130 130 26 130 130 130 130 130 130 130 130 130 130 130 130 130 130 130 130 130 130 22 130 130 30 130 130 130 130 130 130 130 130 130 130 130 130 21 130 130 31 130 130
130 130 29 36 130 130 130 130 130 130 21 130 19 130 130 130 130 130 130 130 130 21 130 130 16 130 130 42 33 29 130 130 130 130 130 130 130 130 25 19 6 0 130 130 17 130 130 23 130 31 130 130 6 25 130 130 130 35 130 130 130 130 30 130 33 130 32 130 130 130 130 130 130 130 130 130 130 130 130 130 130 23 130 130 26 130 130 130 130 130 130 130 130 38 130 130 130 17 130 130 26 130 130
130 5 130 130 130 21 130 130 130 27 130 130 130 130 130 130 130 130 9 130 130 130 130 130 130 130 130 130 130 130 130 130 9 130 130 130 10 130 130 130 130 130 0 130 130 24 130 130 130 130 17 130 130 130 130 8 130 130 130 130 130 14 130 34 130 130 130 130 15 23 130 130 130 130 130 20 27 130 130 130 130 130 130 22 130 130 130 130 2 130 130 130 130 130 130 26 130 130 130 26 130 130 130
32 130 130 130 24 130 130 52 39 130 130 130 130 130 44 24 130 130 130 39 62 130 130 40 130 130 18 130 68 130 42 54 130 24 13 130 130 30 130 130 130 130 130 0 130 130 18 130 130 130 130 34 130 130 35 130 130 130 130 130 130 130 130 130 130 23 130 130 130 130 130 130 130 130 130 130 130 36 65 130 26 130 130 130 130 130 130 130 130 130 130 130 48 130 130 130 130 130 52 130 130 130 18
130 130 13 130 130 130 13 130 130 130 15 130 11 130 130 130 130 130 130 130 130 9 130 130 5 130 130 27 130 32 130 130 130 130 130 130 130 130 13 8 21 17 130 130 0 130 130 34 130 33 130 130 17 36 130 130 130 23 130 130 130 130 37 32 16 130 130 130 130 130 130 130 23 130 130 130 130 130 130 130 130 130 30 130 11 130 130 130 130 17 37 36 130 29 130 130 130 28 130 36 25 130 130
130 22 130 130 130 130 130 130 28 35 130 13 130 27 130 130 130 22 15 130 130 130 130 130 130 17 130 130 130 130 130 130 28 130 130 130 130 130 130 130 130 130 24 130 130 0 130 130 130 130 29 130 130 130 130 130 130 130 130 6 130 17 130 32 130 130 130 130 130 18 15 130 25 28 130 130 130 27 130 130 130 130 130 10 130 13 130 18 23 130 130 19 130 130 25 15 130 130 130 15 130 15 130
14 130 130 130 12 130 130 36 27 130 130 130 130 130 130 7 130 130 130 24 130 130 130 23 130 130 14 32 130 130 24 130 130 14 30 130 130 130 130 130 130 130 130 18 130 130 0 130 130 130 130 17 130 130 17 130 130 130 130 130 130 130 130 130 130 23 130 130 130 130 130 130 130 130 130 130 130 130 49 130 130 130 130 130 130 130 130 130 130 130 19 130 30 130 130 130 130 130 130 130 130 130 11
130 130 130 58 130 130 130 130 130 130 43 130 130 130 130 130 130 130 130 130 130 130 130 130 36 130 130 130 17 15 130 130 130 130 130 130 130 130 130 130 26 23 130 130 34 130 130 0 130 18 130 130 29 2 130 130 130 130 130 130 130 130 50 130 130 130 130 130 130 130 130 130 130 130 130 130 130 130 29 130 130 45 130 130 130 130 130 130 130 130 130 130 130 130 130 130 130 6 130 130 20 130 130
130 130 130 15 130 130 130 130 130 130 130 130 130 130 130 130 130 130 130 130 130 130 32 130 130 130 130 130 130 130 130 130 130 130 130 4 130 130 130 130 130 130 130 130 130 130 130 130 0 130 130 130 130 130 130 130 12 130 130 130 3 130 20 130 130 130 130 8 130 130 130 130 130 130 4 130 130 130 130 130 130 130 130 130 130 130 130 130 130 130 130 130 130 130 130 130 130 130 130 130 130 130 130
130 130 130 130 130 130 130 130 130 130 130 130 130 130 130 130 130 130 130 130 8 130 130 130 130 130 130 130 4 3 130 17 130 130 130 130 130 130 130 130 36 31 130 130 33 130 130 18 130 0 130 130 130 17 130 130 130 25 130 130 130 130 130 130 130 130 3 130 130 130 130 130 130 130 130 130 130 130 17 130 130 130 7 130 130 130 6 130 130 130 130 130 130 20 130 130 7 17 14 130 8 130 130
130 12 130 130 130 130 130 130 130 130 130 130 130 43 130 130 130 130 21 130 130 130 130 130 130 130 130 130 130 130 130 130 130 130 130 130 24 54 130 130 130 130 17 130 130 29 130 130 130 130 0 130 130 130 130 20 130 130 130 130 130 13 130 130 130 130 130 130 11 130 130 130 130 42 130 130 130 130 130 130 130 130 130 22 130 130 130 37 15 130 130 130 130 130 26 130 130 130 130 130 130 21 130
10 130 130 130 21 130 130 21 30 130 130 130 130 130 10 10 12 130 130 9 130 130 130 7 130 130 130 27 130 130 8 22 130 130 130 130 130 130 130 130 130 130 130 34 130 130 17 130 130 130 130 0 130 130 7 130 130 130 130 130 130 130 130 130 130 130 130 130 130 130 130 130 130 130 130 130 130 130 33 130 130 130 130 130 130 130 130 130 130 130 11 130 14 17 130 130 130 130 18 130 130 130 24
130 130 130 30 130 130 22 130 130 130 16 130 16 130 130 130 130 130 130 130 130 18 43 130 15 130 130 130 130 35 130 130 130 130 130 45 130 130 22 17 5 6 130 130 17 130 130 29 130 130 130 130 0 31 130 130 31 130 130 130 44 130 24 41 130 130 130 35 130 130 130 41 130 130 130 130 130 130 130 130 130 18 130 130 27 130 130 130 130 130 130 130 130 130 130 130 130 24 130 130 31 130 130
130 130 130 130 130 130 130 36 130 130 130 130 130 130 130 130 130 130 130 130 23 130 130 130 130 130 130 130 16 14 130 32 130 130 130 130 130 130 130 130 28 25 130 130 36 130 130 2 130 17 130 130 31 0 130 130 130 130 130 130 130 130 53 130 130 130 20 130 130 130 130 130 130 130 130 130 130 130 27 130 130 130 130 130 130 130 23 130 130 130 130 130 130 130 130 130 130 8 31 130 20 130 130
4 130 130 130 17 130 130 130 24 130 130 130 130 130 12 13 11 29 130 16 130 130 130 11 130 130 130 20 130 130 10 130 130 20 130 130 130 130 130 130 130 130 130 35 130 130 17 130 130 130 130 7 130 130 0 130 130 17 130 130 130 130 130 130 130 130 130 130 130 130 130 130 130 130 130 130 130 130 130 130 130 130 25 130 130 130 130 130 130 130 4 130 17 14 130 130 130 130 19 130 29 130 130
130 12 130 130 130 17 130 130 130 26 130 130 130 130 130 130 130 130 16 130 130 130 130 130 130 130 130 130 130 130 130 130 7 130 130 130 4 130 130 130 130 130 8 130 130 130 130 130 130 130 20 130 130 130 130 0 130 130 35 130 130 21 130 130 130 130 130 130 14 28 130 130 130 130 130 16 25 130 130 130 130 130 130 130 130 130 130 130 9 130 130 130 130 130 130 31 130 130 130 130 130 130 130
130 130 130 10 130 130 130 130 130 130 26 130 130 130 130 130 130 130 130 130 130 130 32 130 130 130 130 130 130 130 130 130 130 130 130 15 130 130 130 130 33 130 130 130 130 130 130 130 12 130 130 130 31 130 130 130 0 130 37 130 14 130 8 130 130 130 130 7 130 130 130 35 130 130 9 130 130 130 130 130 130 24 130 130 130 130 130 130 130 130 130 130 130 130 130 130 130 130 130 130 130 130 130
19 130 16 130 29 130 130 130 25 130 130 130 130 130 18 130 13 26 130 130 130 130 130 130 28 130 130 12 130 130 17 130 130 130 130 130 130 130 130 130 130 35 130 130 23 130 130 130 130 25 130 130 130 130 17 130 130 0 130 130 130 130 130 130 28 130 23 130 130 130 35 130 26 130 130 130 130 130 130 130 130 130 18 130 13 130 130 130 130 28 14 28 130 8 130 130 19 33 19 130 19 130 130
130 130 130 29 130 18 130 130 130 14 130 130 130 130 130 130 130 130 39 130 130 130 12 130 130 130 130 130 130 130 130 130 30 130 130 29 32 130 37 130 130 130 130 130 130 130 130 130 130 130 130 130 130 130 130 35 37 130 0 130 130 130 44 23 130 130 130 31 49 31 130 18 130 130 32 20 13 130 130 130 130 37 130 130 130 130 130 130 130 130 130 130 130 130 130 130 130 130 130 130 130 130 130
130 130 130 130 130 130 130 130 22 130 130 9 130 26 130 130 130 16 21 130 130 130 130 130 130 11 130 28 130 130 130 130 130 130 130 130 130 130 130 130 130 130 130 130 130 6 130 130 130 130 130 130 130 130 130 130 130 130 130 0 130 23 130 130 130 35 130 130 130 19 9 130 20 28 130 130 130 25 130 28 130 130 130 15 130 9 130 17 130 130 130 13 130 130 28 15 130 130 130 15 130 20 130
130 130 130 18 130 130 130 130 130 130 130 130 130 130 130 130 130 130 130 130 130 130 35 130 130 130 130 130 130 130 130 130 130 130 130 6 130 130 130 130 130 130 130 130 130 130 130 130 3 130 130 130 44 130 130 130 14 130 130 130 0 130 21 130 130 130 130 11 130 130 130 130 130 130 6 130 130 130 130 130 130 36 130 130 130 130 130 130 130 130 130 130 130 130 130 130 130 130 130 130 130 130 130
130 9 130 130 130 130 130 130 130 130 130 28 130 130 130 130 130 130 12 130 130 130 130 130 130 130 130 130 130 130 130 130 22 130 130 130 130 130 130 130 130 130 14 130 130 17 130 130 130 130 13 130 130 130 130 21 130 130 130 23 130 0 130 130 130 130 130 130 20 27 130 130 130 34 130 130 130 130 130 130 130 130 130 10 130 130 130 27 12 130 130 130 130 130 21 27 130 130 130 130 130 12 130
130 130 130 15 130 130 130 130 130 49 24 130 28 130 130 130 130 130 130 130 130 130 37 130 32 130 130 130 130 59 130 130 130 130 130 24 130 130 31 130 26 30 130 130 37 130 130 50 20 130 130 130 24 53 130 130 8 130 44 130 21 130 0 130 130 130 130 15 130 130 130 39 130 130 18 130 130 130 130 130 130 23 130 130 130 130 130 130 130 130 130 130 130 130 130 130 130 47 130 130 56 130 130
130 130 30 29 130 24 20 130 130 14 25 23 25 130 130 130 130 130 29 130 130 24 12 130 130 130 130 40 130 130 130 130 28 130 130 40 130 130 19 130 130 130 34 130 32 32 130 130 130 130 130 130 41 130 130 130 130 130 23 130 130 130 130 0 18 130 130 130 130 14 130 5 22 130 130 130 15 130 130 130 130 24 130 130 34 23 130 130 130 18 130 35 130 130 130 17 130 130 130 17 130 130 130
130 130 12 130 130 130 11 130 130 31 19 130 16 130 130 130 130 130 130 130 130 13 28 130 16 130 130 24 130 130 130 130 130 130 130 130 130 130 11 14 130 33 130 130 16 130 130 130 130 130 130 130 130 130 130 130 130 28 130 130 130 130 130 18 0 130 130 130 130 22 130 22 9 130 130 130 130 130 130 130 130 20 130 130 16 19 130 130 130 1 130 25 130 130 130 20 130 130 130 20 38 130 130
28 130 130 130 16 130 130 130 21 130 130 130 130 17 130 130 130 26 130 130 130 130 130 130 130 29 9 34 130 130 130 130 130 13 24 130 130 13 130 130 130 130 130 23 130 130 23 130 130 130 130 130 130 130 130 130 130 130 130 35 130 130 130 130 130 0 130 130 130 130 26 130 130 19 130 130 130 13 130 13 5 130 130 130 130 130 130 23 130 130 32 130 130 130 36 130 130 130 130 130 130 130 12
130 130 130 130 130 130 130 18 130 130 130 130 130 130 130 130 18 130 130 130 7 130 130 130 130 130 130 130 6 6 130 14 130 130 130 130 130 130 130 130 130 32 130 130 130 130 130 130 130 3 130 130 130 20 130 130 130 23 130 130 130 130 130 130 130 130 0 130 130 130 130 130 130 130 130 130 130 130 17 130 130 130 5 130 29 130 3 130 130 130 29 130 16 18 130 130 4 20 11 130 8 130 130
130 130 130 7 130 130 130 130 130 38 130 130 130 130 130 130 130 130 130 130 130 130 27 130 130 130 130 130 130 130 130 130 130 130 130 10 130 130 130 130 130 130 130 130 130 130 130 130 8 130 130 130 35 130 130 130 7 130 31 130 11 130 15 130 130 130 130 0 130 130 130 31 130 130 4 130 130 130 130 130 130 25 130 130 130 130 130 130 130 130 130 130 130 130 130 130 130 130 130 130 130 130 130
130 13 130 130 130 32 130 130 130 130 130 130 130 130 130 130 130 130 23 130 130 130 130 130 130 130 130 130 130 130 130 130 21 130 130 130 18 130 130 130 130 130 15 130 130 130 130 130 130 130 11 130 130 130 130 14 130 130 49 130 130 20 130 130 130 130 130 130 0 130 130 130 130 130 130 30 40 130 130 130 130 130 130 30 130 130 130 130 15 130 130 130 130 130 37 130 130 130 130 130 130 31 130
130 26 32 130 130 23 130 130 130 18 130 13 130 130 130 130 130 130 17 130 130 130 24 130 130 26 130 130 130 130 130 130 21 130 130 130 27 130 29 130 130 130 23 130 130 18 130 130 130 130 130 130 130 130 130 28 130 130 31 19 130 27 130 14 22 130 130 130 130 0 130 18 20 130 130 26 18 130 130 130 130 35 130 26 130 13 130 35 24 21 130 130 130 130 130 5 130 130 130 5 130 130 130
34 130 130 130 28 130 130 130 13 130 130 15 130 20 130 130 130 9 30 130 130 130 130 130 130 7 30 23 130 130 130 130 130 26 50 130 130 130 130 130 130 130 130 130 130 15 130 130 130 130 130 130 130 130 130 130 130 35 130 9 130 130 130 130 130 26 130 130 130 130 0 130 23 22 130 130 130 17 130 21 27 130 130 20 130 16 130 12 130 130 34 8 130 130 28 23 130 130 130 23 130 23 130
130 130 34 25 130 23 21 130 130 12 25 130 26 130 130 130 130 130 32 130 130 25 7 130 130 130 130 130 130 130 130 130 30 130 130 35 130 130 21 130 130 130 130 130 130 130 130 130 130 130 130 130 41 130 130 130 35 130 18 130 130 130 39 5 22 130 130 31 130 18 130 0 130 130 130 130 13 130 130 130 130 23 130 130 130 130 130 130 130 22 130 130 130 130 130 22 130 130 130 22 130 130 130
130 130 12 130 130 130 130 130 24 34 130 13 130 130 130 130 130 19 130 130 130 21 130 130 130 17 130 18 130 130 130 130 130 130 130 130 130 130 20 130 130 130 130 130 23 25 130 130 130 130 130 130 130 130 130 130 130 26 130 20 130 130 130 22 9 130 130 130 130 20 23 130 0 130 130 130 130 130 130 130 130 130 130 130 18 12 130 130 130 8 34 16 130 130 130 16 130 130 130 16 40 130 130
130 130 130 130 130 130 130 130 28 130 130 130 130 3 130 130 130 130 130 130 130 130 130 130 130 130 130 130 130 130 130 130 130 130 38 130 130 12 130 130 130 130 130 130 130 28 130 130 130 130 42 130 130 130 130 130 130 130 130 28 130 34 130 130 130 19 130 130 130 130 22 130 130 0 130 130 130 8 130 6 15 130 130 25 130 130 130 11 130 130 130 130 130 130 17 130 130 130 130 130 130 22 130
130 130 130 12 130 130 130 130 130 130 130 130 130 130 130 130 130 130 130 130 130 130 30 130 130 130 130 130 130 130 130 130 130 130 130 6 130 130 130 130 130 130 130 130 130 130 130 130 4 130 130 130 130 130 130 130 9 130 32 130 6 130 18 130 130 130 130 4 130 130 130 130 130 130 0 130 130 130 130 130 130 29 130 130 130 130 130 130 130 130 130 130 130 130 130 130 130 130 130 130 130 130 130
130 25 130 130 130 3 130 130 130 14 130 130 130 130 130 130 130 130 24 130 130 130 25 130 130 130 130 130 130 130 130 130 12 130 130 130 12 130 130 130 130 130 20 130 130 130 130 130 130 130 130 130 130 130 130 16 130 130 20 130 130 130 130 130 130 130 130 130 30 26 130 130 130 130 130 0 13 130 130 130 130 130 130 130 130 130 130 130 22 130 130 130 130 130 130 130 130 130 130 130 130 130 130
130 130 130 35 130 10 130 130 130 1 130 130 130 130 130 130 130 130 26 130 130 130 12 130 130 130 130 130 130 130 130 130 19 130 130 40 22 130 130 130 130 130 27 130 130 130 130 130 130 130 130 130 130 130 130 25 130 130 13 130 130 130 130 15 130 130 130 130 40 18 130 13 130 130 130 13 0 130 130 130 130 36 130 130 130 130 130 130 130 130 130 130 130 130 130 23 130 130 130 24 130 130 130
36 130 130 130 25 130 130 130 20 130 130 33 130 5 130 130 130 22 130 130 130 130 130 130 130 23 22 34 130 130 130 130 130 22 35 130 130 13 130 130 130 130 130 36 130 27 130 130 130 130 130 130 130 130 130 130 130 130 130 25 130 130 130 130 130 13 130 130 130 130 17 130 130 8 130 130 130 0 130 3 11 130 130 27 130 130 130 10 130 130 38 24 130 130 24 130 130 130 130 130 130 25 24
130 130 130 130 130 130 130 13 130 130 130 130 130 130 24 42 130 130 130 25 10 130 130 26 130 130 130 130 14 18 130 12 130 130 130 130 130 130 130 130 130 130 130 65 130 130 49 29 130 17 130 33 130 27 130 130 130 130 130 130 130 130 130 130 130 130 17 130 130 130 130 130 130 130 130 130 130 130 0 130 130 130 130 130 130 130 17 130 130 130 130 130 20 130 130 130 18 31 19 130 24 130 130
130 130 130 130 130 130 130 130 24 130 130 130 130 4 130 130 130 130 130 130 130 130 130 130 130 130 22 130 130 130 130 130 130 23 34 130 130 10 130 130 130 130 130 130 130 130 130 130 130 130 130 130 130 130 130 130 130 130 130 28 130 130 130 130 130 13 130 130 130 130 21 130 130 6 130 130 130 3 130 0 10 130 130 130 130 130 130 12 130 130 130 130 130 130 23 130 130 130 130 130 130 26 130
130 130 130 130 21 130 130 130 24 130 130 130 130 14 130 130 130 28 130 130 130 130 130 130 130 130 14 130 130 130 130 130 130 18 25 130 130 7 130 130 130 130 130 26 130 130 130 130 130 130 130 130 130 130 130 130 130 130 130 130 130 130 130 130 130 5 130 130 130 130 27 130 130 15 130 130 130 11 130 10 0 130 130 130 130 130 130 21 130 130 130 130 130 130 32 130 130 130 130 130 130 130 17
130 130 130 18 130 130 9 130 130 35 3 130 6 130 130 130 130 130 130 130 130 9 25 130 12 130 130 130 130 130 130 130 130 130 130 34 130 130 8 10 22 23 130 130 130 130 130 45 130 130 130 130 18 130 130 130 24 130 37 130 36 130 23 24 20 130 130 25 130 35 130 23 130 130 29 130 36 130 130 130 130 0 130 130 130 130 130 130 130 21 130 130 130 130 130 130 130 39 130 130 130 130 130
130 130 130 130 130 130 130 130 130 130 130 130 130 130 15 130 14 130 130 130 11 130 130 130 130 130 130 30 11 10 17 16 130 130 130 130 130 130 130 130 130 130 130 130 30 130 130 130 130 7 130 130 130 130 25 130 130 18 130 130 130 130 130 130 130 130 5 130 130 130 130 130 130 130 130 130 130 130 130 130 130 130 0 130 25 130 3 130 130 130 25 130 14 13 130 130 2 22 9 130 6 130 130
130 18 130 130 130 130 130 130 130 130 130 22 130 25 130 130 130 130 15 130 130 130 130 130 130 25 130 130 130 130 130 130 29 130 130 130 130 38 130 130 130 130 22 130 130 10 130 130 130 130 22 130 130 130 130 130 130 130 130 15 130 10 130 130 130 130 130 130 30 26 20 130 130 25 130 130 130 27 130 130 130 130 130 0 130 130 130 17 20 130 130 130 130 130 17 24 130 130 130 24 130 6 130
32 130 6 130 130 130 19 130 30 130 130 130 130 130 130 130 26 28 130 130 130 17 130 130 15 130 130 16 130 30 130 130 130 130 130 130 130 130 130 17 30 26 130 130 11 130 130 130 130 130 130 130 27 130 130 130 130 13 130 130 130 130 130 34 16 130 29 130 130 130 130 130 18 130 130 130 130 130 130 130 130 130 25 130 0 30 130 130 130 16 27 27 130 21 130 130 130 31 29 34 22 130 130
130 130 24 130 130 130 130 130 24 130 130 1 130 130 130 130 130 17 22 130 130 130 130 130 130 12 130 25 130 130 130 130 130 130 130 130 130 130 130 130 130 130 130 130 130 13 130 130 130 130 130 130 130 130 130 130 130 130 130 9 130 130 130 23 19 130 130 130 130 13 16 130 12 130 130 130 130 130 130 130 130 130 130 130 30 0 130 26 130 18 130 13 130 130 130 8 130 130 130 8 130 130 130
130 130 130 130 130 130 130 17 130 130 130 130 130 130 16 130 15 130 130 130 7 130 130 130 130 130 130 130 9 8 130 13 130 130 130 130 130 130 130 130 130 130 130 130 130 130 130 130 130 6 130 130 130 23 130 130 130 130 130 130 130 130 130 130 130 130 3 130 130 130 130 130 130 130 130 130 130 130 17 130 130 130 3 130 130 130 0 130 130 130 130 130 13 15 130 130 2 130 8 130 8 130 130
130 35 130 130 130 130 130 130 22 130 130 25 130 9 130 130 130 20 31 130 130 130 130 130 130 19 130 34 130 130 130 130 130 29 46 130 130 22 130 130 130 130 130 130 130 18 130 130 130 130 37 130 130 130 130 130 130 130 130 17 130 27 130 130 130 23 130 130 130 35 12 130 130 11 130 130 130 10 130 12 21 130 130 17 130 26 130 0 130 130 130 21 130 130 17 31 130 130 130 31 130 16 130
130 3 130 130 130 130 130 130 130 29 130 130 130 130 130 130 130 130 9 130 130 130 130 130 130 130 130 130 130 130 130 130 11 130 130 130 12 130 130 130 130 130 2 130 130 23 130 130 130 130 15 130 130 130 130 9 130 130 130 130 130 12 130 130 130 130 130 130 15 24 130 130 130 130 130 22 130 130 130 130 130 130 130 20 130 130 130 130 0 130 130 130 130 130 130 26 130 130 130 130 130 24 130
130 130 12 130 130 130 12 130 130 32 130 19 130 130 130 130 130 26 37 130 130 14 130 130 130 24 130 23 130 130 130 130 42 130 130 130 130 130 12 15 130 130 130 130 17 130 130 130 130 130 130 130 130 130 130 130 130 28 130 130 130 130 130 18 1 130 130 130 130 21 130 22 8 130 130 130 130 130 130 130 130 21 130 130 16 18 130 130 130 0 130 24 130 130 130 19 130 130 130 19 38 130 130
5 130 28 130 17 130 130 130 21 130 130 130 130 130 14 16 12 25 130 19 130 130 130 14 130 30 130 16 130 130 12 130 130 19 130 130 130 130 130 130 130 130 130 130 37 130 19 130 130 130 130 11 130 130 4 130 130 14 130 130 130 130 130 130 130 32 29 130 130 130 34 130 34 130 130 130 130 38 130 130 130 130 25 130 27 130 130 130 130 130 0 28 19 13 130 130 26 130 20 130 29 130 22
29 130 23 130 130 130 130 130 10 130 130 13 130 130 130 130 130 4 130 130 130 130 130 130 130 2 130 15 130 130 130 130 130 130 130 130 130 130 130 130 130 130 130 130 36 19 130 130 130 130 130 130 130 130 130 130 130 28 130 13 130 130 130 35 25 130 130 130 130 130 8 130 16 130 130 130 130 24 130 130 130 130 130 130 27 13 130 21 130 24 28 0 130 130 130 21 130 130 130 21 130 130 130
21 130 130 130 130 130 130 10 130 130 130 130 130 130 4 24 9 130 130 10 14 130 130 8 130 130 130 130 21 130 7 9 130 130 130 130 130 130 130 130 130 130 130 48 130 130 30 130 130 130 130 14 130 130 17 130 130 130 130 130 130 130 130 130 130 130 16 130 130 130 130 130 130 130 130 130 130 130 20 130 130 130 14 130 130 130 13 130 130 130 19 130 0 13 130 130 13 130 5 130 130 130 130
17 130 24 130 130 130 130 130 30 130 130 130 130 130 10 130 5 32 130 130 21 130 130 14 130 130 130 19 24 22 10 20 130 130 130 130 130 130 130 130 130 38 130 130 29 130 130 130 130 20 130 17 130 130 14 130 130 8 130 130 130 130 130 130 130 130 18 130 130 130 130 130 130 130 130 130 130 130 130 130 130 130 13 130 21 130 15 130 130 130 13 130 13 0 130 130 14 130 11 130 16 130 130
130 30 130 130 130 130 130 130 130 130 130 130 130 19 130 130 130 130 31 130 130 130 130 130 130 130 45 130 130 130 130 130 130 130 54 130 130 29 130 130 130 130 130 130 130 25 130 130 130 130 26 130 130 130 130 130 130 130 130 28 130 21 130 130 130 36 130 130 37 130 28 130 130 17 130 130 130 24 130 23 32 130 130 17 130 130 130 17 130 130 130 130 130 130 0 130 130 130 130 130 130 11 130
130 28 130 130 130 130 130 130 130 23 130 8 130 130 130 130 130 130 18 130 130 130 130 130 130 20 130 130 130 130 130 130 25 130 130 130 130 130 130 130 130 130 26 130 130 15 130 130 130 130 130 130 130 130 130 31 130 130 130 15 130 27 130 17 20 130 130 130 130 5 23 22 16 130 130 130 23 130 130 130 130 130 130 24 130 8 130 31 26 19 130 21 130 130 130 0 130 130 130 1 130 30 130
130 130 130 130 130 130 130 130 130 130 130 130 130 130 15 130 14 130 130 130 9 130 130 130 130 130 130 130 10 9 130 14 130 130 130 130 130 130 130 130 130 130 130 130 130 130 130 130 130 7 130 130 130 130 130 130 130 19 130 130 130 130 130 130 130 130 4 130 130 130 130 130 130 130 130 130 130 130 18 130 130 130 2 130 130 130 2 130 130 130 26 130 13 14 130 130 0 130 8 130 8 130 130
130 130 37 130 130 130 130 130 130 130 130 130 35 130 130 130 130 130 130 130 25 130 130 130 30 130 130 130 17 15 130 130 130 130 130 130 130 130 130 34 21 17 130 130 28 130 130 6 130 17 130 130 24 8 130 130 130 33 130 130 130 130 47 130 130 130 20 130 130 130 130 130 130 130 130 130 130 130 31 130 130 39 22 130 31 130 130 130 130 130 130 130 130 130 130 130 130 0 130 130 17 130 130
23 130 130 130 130 130 130 12 130 130 130 130 130 130 7 130 8 130 130 15 12 130 130 12 130 130 130 30 17 130 10 10 130 130 130 130 130 130 130 130 130 130 130 52 130 130 130 130 130 14 130 18 130 31 19 130 130 19 130 130 130 130 130 130 130 130 11 130 130 130 130 130 130 130 130 130 130 130 19 130 130 130 9 130 29 130 8 130 130 130 20 130 5 11 130 130 8 130 0 130 15 130 130
130 130 28 130 130 130 29 130 130 23 130 8 130 130 130 130 130 25 18 130 130 130 28 130 130 20 130 31 130 130 130 130 25 130 130 130 130 130 29 130 130 130 26 130 36 15 130 130 130 130 130 130 130 130 130 130 130 130 130 15 130 130 130 17 20 130 130 130 130 5 23 22 16 130 130 130 24 130 130 130 130 130 130 24 34 8 130 31 130 19 130 21 130 130 130 1 130 130 130 0 130 130 130
130 130 28 130 130 130 130 130 44 130 130 130 36 130 21 130 19 130 130 130 15 34 130 130 29 130 130 31 12 8 130 130 130 130 130 130 130 130 130 33 31 26 130 130 25 130 130 20 130 8 130 130 31 20 29 130 130 19 130 130 130 130 56 130 38 130 8 130 130 130 130 130 40 130 130 130 130 130 24 130 130 130 6 130 22 130 8 130 130 38 29 130 130 16 130 130 8 17 15 130 0 130 130
130 21 130 130 130 130 130 130 130 130 130 28 130 22 130 130 130 130 21 130 130 130 130 130 130 130 130 130 130 130 130 130 130 130 59 130 130 34 130 130 130 130 130 130 130 15 130 130 130 130 21 130 130 130 130 130 130 130 130 20 130 12 130 130 130 130 130 130 31 130 23 130 130 22 130 130 130 25 130 26 130 130 130 6 130 130 130 16 24 130 130 130 130 130 11 30 130 130 130 130 130 0 130
18 130 130 130 6 130 130 45 21 130 130 130 130 130 130 17 130 130 130 33 130 130 130 130 130 130 3 130 130 130 130 130 130 6 26 130 130 130 130 130 130 130 130 18 130 130 11 130 130 130 130 24 130 130 130 130 130 130 130 130 130 130 130 130 130 12 130 130 130 130 130 130 130 130 130 130 130 24 130 130 17 130 130 130 130 130 130 130 130 130 22 130 130 130 130 130 130 130 130 130 130 130 0
EOF
